# Solution for model problem
# Objective value = 0
src_0 0
src_1 1
src_2 0
src_3 0
can1_0 1
can1_1 0
can1_2 0
can1_3 0
fp_0 1
fp_1 0
fp_2 0
fp_3 0
can2_0 1
can2_1 0
can2_2 0
can2_3 0
pulse_0 1
pulse_1 0
pulse_2 0
pulse_3 0
sink_0 1
sink_1 0
sink_2 0
sink_3 0
